DIMACS_lns/graph-1000-141.col
p edge 1000 1849
e 3 723
e 3 884
e 3 869
e 3 830
e 4 284
e 4 858
e 4 958
e 4 316
e 5 79
e 5 359
e 5 257
e 5 675
e 5 15
e 5 786
e 6 52
e 6 582
e 6 209
e 6 970
e 6 298
e 6 352
e 6 157
e 8 472
e 8 334
e 8 111
e 8 907
e 9 786
e 9 145
e 9 488
e 10 373
e 10 825
e 10 446
e 10 733
e 10 22
e 10 812
e 10 20
e 10 922
e 10 555
e 11 665
e 11 90
e 11 623
e 11 716
e 11 959
e 12 829
e 12 798
e 12 200
e 12 986
e 12 33
e 14 302
e 14 610
e 14 617
e 14 668
e 15 629
e 15 737
e 16 66
e 16 193
e 16 870
e 17 314
e 17 968
e 17 960
e 17 705
e 18 807
e 18 232
e 18 362
e 18 714
e 19 439
e 19 301
e 19 66
e 20 738
e 20 884
e 20 125
e 20 577
e 21 263
e 21 490
e 21 952
e 21 461
e 21 533
e 21 275
e 21 563
e 21 230
e 22 111
e 22 439
e 22 679
e 22 576
e 22 544
e 22 123
e 22 160
e 22 975
e 22 97
e 22 331
e 22 504
e 24 156
e 24 729
e 24 743
e 25 866
e 25 288
e 25 674
e 27 980
e 27 585
e 27 589
e 27 401
e 27 514
e 27 707
e 27 520
e 29 841
e 29 451
e 29 298
e 29 291
e 29 746
e 29 826
e 32 664
e 32 426
e 32 771
e 32 790
e 32 988
e 33 184
e 33 640
e 33 588
e 33 248
e 35 370
e 35 295
e 35 911
e 35 621
e 35 199
e 36 159
e 36 981
e 36 793
e 37 977
e 37 908
e 37 256
e 37 677
e 37 546
e 37 635
e 37 231
e 37 805
e 37 103
e 37 549
e 37 524
e 38 728
e 38 956
e 38 766
e 39 731
e 39 728
e 39 429
e 39 560
e 41 763
e 41 59
e 41 629
e 41 461
e 43 391
e 43 946
e 43 695
e 43 920
e 43 537
e 44 617
e 44 903
e 44 784
e 44 342
e 44 501
e 47 615
e 47 765
e 47 463
e 48 564
e 48 79
e 48 453
e 50 996
e 50 336
e 50 948
e 51 280
e 51 824
e 51 387
e 52 591
e 52 818
e 52 734
e 55 228
e 55 997
e 55 790
e 57 351
e 57 184
e 57 577
e 57 212
e 57 529
e 57 524
e 57 397
e 57 622
e 58 505
e 58 567
e 58 479
e 59 300
e 59 541
e 59 191
e 59 250
e 59 383
e 59 846
e 59 167
e 59 635
e 61 279
e 61 990
e 61 934
e 61 364
e 61 157
e 63 550
e 63 729
e 63 586
e 64 852
e 64 731
e 64 453
e 64 667
e 65 761
e 65 260
e 65 488
e 65 407
e 66 311
e 66 799
e 66 493
e 66 946
e 66 245
e 66 705
e 67 824
e 67 745
e 67 695
e 67 978
e 68 401
e 68 543
e 68 577
e 68 152
e 68 591
e 68 139
e 70 667
e 70 461
e 70 481
e 71 361
e 71 706
e 71 589
e 71 632
e 72 331
e 72 195
e 72 76
e 72 419
e 72 790
e 73 822
e 73 246
e 73 412
e 73 925
e 75 80
e 75 851
e 75 543
e 76 187
e 76 424
e 76 777
e 77 644
e 77 548
e 77 282
e 78 161
e 78 931
e 78 504
e 79 587
e 79 653
e 79 876
e 79 267
e 79 462
e 79 424
e 80 676
e 80 710
e 80 393
e 81 579
e 81 637
e 81 846
e 81 306
e 83 784
e 83 442
e 83 410
e 84 920
e 84 453
e 84 598
e 84 195
e 85 662
e 85 743
e 85 988
e 85 626
e 86 227
e 86 364
e 86 870
e 86 910
e 87 860
e 87 747
e 87 775
e 87 843
e 87 680
e 88 517
e 88 893
e 88 243
e 88 148
e 88 284
e 90 597
e 90 646
e 90 191
e 90 575
e 90 990
e 90 508
e 92 945
e 92 825
e 92 628
e 92 894
e 92 433
e 92 754
e 92 742
e 94 365
e 94 736
e 94 634
e 94 230
e 97 392
e 97 359
e 97 576
e 97 834
e 99 177
e 99 543
e 99 976
e 99 785
e 99 778
e 99 591
e 101 442
e 101 235
e 101 362
e 102 268
e 102 786
e 102 487
e 102 434
e 102 468
e 102 262
e 103 360
e 103 154
e 103 604
e 104 220
e 104 744
e 104 858
e 104 390
e 104 743
e 105 749
e 105 579
e 105 108
e 105 626
e 105 623
e 108 544
e 108 719
e 108 831
e 108 931
e 109 184
e 109 474
e 109 541
e 110 219
e 110 408
e 110 132
e 110 581
e 111 410
e 111 646
e 111 316
e 112 391
e 112 973
e 112 783
e 113 546
e 113 959
e 113 392
e 113 438
e 119 756
e 119 941
e 119 871
e 119 920
e 120 739
e 120 576
e 120 978
e 120 682
e 120 771
e 121 775
e 121 840
e 121 214
e 121 653
e 121 824
e 121 676
e 121 672
e 123 878
e 123 168
e 123 366
e 123 651
e 123 771
e 124 831
e 124 929
e 124 460
e 125 341
e 125 679
e 125 976
e 125 844
e 127 988
e 127 212
e 127 186
e 132 941
e 132 308
e 132 709
e 132 700
e 133 889
e 133 737
e 133 475
e 133 258
e 133 223
e 133 977
e 135 925
e 135 582
e 135 742
e 136 297
e 136 594
e 136 221
e 136 861
e 136 196
e 136 358
e 138 150
e 138 827
e 138 797
e 138 335
e 138 312
e 138 689
e 138 737
e 139 965
e 139 609
e 139 345
e 139 545
e 141 298
e 141 580
e 141 362
e 141 297
e 142 580
e 142 585
e 142 936
e 142 984
e 143 454
e 143 826
e 143 255
e 143 797
e 144 511
e 144 406
e 144 937
e 144 561
e 145 561
e 145 472
e 145 691
e 145 232
e 145 570
e 147 312
e 147 943
e 147 873
e 147 989
e 148 287
e 148 646
e 150 425
e 150 497
e 151 443
e 151 539
e 151 621
e 151 300
e 152 417
e 152 636
e 152 808
e 152 680
e 152 187
e 153 342
e 153 695
e 153 651
e 153 850
e 153 515
e 154 775
e 154 622
e 154 871
e 154 914
e 154 843
e 155 982
e 155 503
e 155 596
e 155 614
e 156 210
e 156 283
e 156 331
e 156 691
e 157 276
e 157 492
e 157 977
e 158 361
e 158 537
e 158 948
e 159 267
e 159 501
e 159 503
e 159 472
e 159 775
e 159 469
e 160 396
e 160 400
e 161 705
e 161 191
e 161 744
e 161 1000
e 161 301
e 167 329
e 167 405
e 167 929
e 168 259
e 168 605
e 168 939
e 169 794
e 169 573
e 169 201
e 170 235
e 170 555
e 170 491
e 171 753
e 171 226
e 171 454
e 172 853
e 172 199
e 172 708
e 172 287
e 174 419
e 174 502
e 174 261
e 174 462
e 175 812
e 175 412
e 175 301
e 175 875
e 175 461
e 176 921
e 176 903
e 176 750
e 176 271
e 177 875
e 177 575
e 180 694
e 180 246
e 180 643
e 180 765
e 182 269
e 182 968
e 182 973
e 182 682
e 182 470
e 182 635
e 184 689
e 186 362
e 186 810
e 186 758
e 187 505
e 187 497
e 187 410
e 187 973
e 190 453
e 190 227
e 190 325
e 190 250
e 190 796
e 190 218
e 190 383
e 191 449
e 191 665
e 191 378
e 191 975
e 193 776
e 193 810
e 193 814
e 195 276
e 195 576
e 195 812
e 195 695
e 196 282
e 196 554
e 196 410
e 196 436
e 196 907
e 198 452
e 198 199
e 198 219
e 200 430
e 200 288
e 200 617
e 200 970
e 201 429
e 201 695
e 201 993
e 202 238
e 202 317
e 202 653
e 202 905
e 203 808
e 203 322
e 203 587
e 204 943
e 204 317
e 204 497
e 207 653
e 207 733
e 207 763
e 207 895
e 207 238
e 207 228
e 207 447
e 208 269
e 208 418
e 208 965
e 208 276
e 209 572
e 209 286
e 209 497
e 210 960
e 210 542
e 210 716
e 211 390
e 211 254
e 211 302
e 211 668
e 212 825
e 212 256
e 213 243
e 213 690
e 213 395
e 213 220
e 213 606
e 214 577
e 214 378
e 214 757
e 215 999
e 215 657
e 215 861
e 216 444
e 216 656
e 216 352
e 216 297
e 217 412
e 217 730
e 217 892
e 217 891
e 218 401
e 218 542
e 218 613
e 218 869
e 219 449
e 219 308
e 219 602
e 220 451
e 220 749
e 220 942
e 220 442
e 220 390
e 221 775
e 221 691
e 221 431
e 221 597
e 221 518
e 223 610
e 223 416
e 223 369
e 225 594
e 225 337
e 225 235
e 226 881
e 226 936
e 226 676
e 226 368
e 227 606
e 227 903
e 227 631
e 227 814
e 227 602
e 227 447
e 228 412
e 228 788
e 228 826
e 228 280
e 229 555
e 229 337
e 229 879
e 230 609
e 230 977
e 230 482
e 230 468
e 231 370
e 231 992
e 231 687
e 231 603
e 232 530
e 232 443
e 232 429
e 232 483
e 232 433
e 232 398
e 235 886
e 235 630
e 235 520
e 237 247
e 237 341
e 237 929
e 238 663
e 238 959
e 238 325
e 238 838
e 240 277
e 240 600
e 240 964
e 240 294
e 241 969
e 241 553
e 241 710
e 243 857
e 243 937
e 243 269
e 243 985
e 243 830
e 243 828
e 244 322
e 244 669
e 244 919
e 244 314
e 245 640
e 245 559
e 245 622
e 246 284
e 246 414
e 246 331
e 246 827
e 246 900
e 246 771
e 247 915
e 247 427
e 248 268
e 248 635
e 249 604
e 249 512
e 249 490
e 249 432
e 249 900
e 250 826
e 254 943
e 254 796
e 255 675
e 255 895
e 255 505
e 256 778
e 256 841
e 256 318
e 257 903
e 257 836
e 257 916
e 257 336
e 257 803
e 258 631
e 258 757
e 259 840
e 259 595
e 260 513
e 260 709
e 261 688
e 261 941
e 261 310
e 262 461
e 262 932
e 262 406
e 262 668
e 263 667
e 263 615
e 265 906
e 265 965
e 265 789
e 267 689
e 267 998
e 267 419
e 268 588
e 268 798
e 269 667
e 269 926
e 269 938
e 269 543
e 269 276
e 269 368
e 270 689
e 270 609
e 270 456
e 271 734
e 271 986
e 271 362
e 271 647
e 271 580
e 271 281
e 272 386
e 272 716
e 272 456
e 274 672
e 274 385
e 274 662
e 274 911
e 274 885
e 274 291
e 275 992
e 275 916
e 275 729
e 275 280
e 276 421
e 277 844
e 277 337
e 279 933
e 279 777
e 279 863
e 280 649
e 280 606
e 280 303
e 280 753
e 280 980
e 280 762
e 281 964
e 281 837
e 282 865
e 282 761
e 282 972
e 282 603
e 282 750
e 282 371
e 283 913
e 283 316
e 283 987
e 283 513
e 284 518
e 285 670
e 285 951
e 285 958
e 285 994
e 286 759
e 286 730
e 286 424
e 286 747
e 287 784
e 287 445
e 287 558
e 287 989
e 288 843
e 288 955
e 289 732
e 289 598
e 289 884
e 289 984
e 289 875
e 289 364
e 289 448
e 290 928
e 290 997
e 290 837
e 290 731
e 290 844
e 290 948
e 291 421
e 293 505
e 293 428
e 293 434
e 294 337
e 294 392
e 294 588
e 294 845
e 294 733
e 295 875
e 295 990
e 296 975
e 296 984
e 296 758
e 296 418
e 297 896
e 297 931
e 297 624
e 300 995
e 300 435
e 300 833
e 300 427
e 301 492
e 301 581
e 302 756
e 302 982
e 302 311
e 303 893
e 303 992
e 303 964
e 306 797
e 306 988
e 308 365
e 308 333
e 310 837
e 310 879
e 310 371
e 310 853
e 310 581
e 311 928
e 311 498
e 311 936
e 312 825
e 312 409
e 312 900
e 314 465
e 314 348
e 314 424
e 316 789
e 316 780
e 316 746
e 317 712
e 317 336
e 317 620
e 317 734
e 318 532
e 318 980
e 318 668
e 318 565
e 322 879
e 322 684
e 322 891
e 323 718
e 323 557
e 323 527
e 323 325
e 324 920
e 324 656
e 324 407
e 324 938
e 324 468
e 324 535
e 325 799
e 327 807
e 327 423
e 327 427
e 327 674
e 329 784
e 329 823
e 331 408
e 331 342
e 331 596
e 331 553
e 331 908
e 332 665
e 332 791
e 332 881
e 332 491
e 332 348
e 332 876
e 333 387
e 333 649
e 334 789
e 334 405
e 334 780
e 335 746
e 335 528
e 335 810
e 335 875
e 335 920
e 335 744
e 335 420
e 336 475
e 336 830
e 336 508
e 336 494
e 336 506
e 337 357
e 337 993
e 337 679
e 341 938
e 341 919
e 341 612
e 342 490
e 342 830
e 343 555
e 343 952
e 343 545
e 344 357
e 344 862
e 344 721
e 345 585
e 345 479
e 346 830
e 346 506
e 346 425
e 346 567
e 347 559
e 347 707
e 347 444
e 347 878
e 348 878
e 348 644
e 348 721
e 348 572
e 348 693
e 348 709
e 348 360
e 351 930
e 351 927
e 351 709
e 351 919
e 352 501
e 353 618
e 353 439
e 353 490
e 353 424
e 353 566
e 353 385
e 354 714
e 354 388
e 354 395
e 354 449
e 354 676
e 357 672
e 357 521
e 357 535
e 358 666
e 358 632
e 358 812
e 359 396
e 359 700
e 359 964
e 360 549
e 361 673
e 361 977
e 361 827
e 361 836
e 362 740
e 362 822
e 362 999
e 362 970
e 363 828
e 363 620
e 363 849
e 364 711
e 364 512
e 365 605
e 365 476
e 365 866
e 366 455
e 366 1000
e 366 395
e 366 493
e 367 465
e 367 987
e 367 829
e 368 731
e 368 596
e 369 958
e 369 547
e 370 800
e 370 759
e 370 814
e 371 385
e 371 760
e 371 706
e 373 746
e 373 762
e 378 974
e 378 576
e 378 942
e 378 722
e 378 465
e 380 872
e 380 512
e 380 393
e 380 434
e 383 518
e 383 548
e 383 823
e 383 822
e 384 764
e 384 963
e 384 418
e 384 686
e 384 388
e 384 417
e 385 422
e 386 480
e 386 564
e 386 754
e 387 629
e 387 476
e 388 843
e 388 524
e 388 751
e 388 833
e 388 982
e 389 906
e 389 747
e 389 684
e 389 796
e 390 721
e 390 913
e 391 855
e 391 852
e 391 455
e 391 846
e 391 696
e 392 488
e 392 587
e 392 469
e 393 487
e 393 550
e 393 758
e 393 455
e 396 627
e 396 679
e 396 730
e 397 605
e 397 879
e 397 766
e 398 963
e 398 623
e 398 818
e 400 892
e 400 680
e 401 814
e 401 633
e 403 643
e 403 431
e 403 908
e 404 547
e 404 432
e 404 564
e 405 456
e 405 916
e 405 695
e 406 771
e 406 871
e 406 695
e 406 733
e 407 414
e 407 887
e 408 601
e 408 604
e 408 834
e 409 956
e 409 557
e 409 895
e 409 861
e 409 550
e 410 462
e 411 453
e 411 842
e 411 845
e 412 523
e 412 669
e 414 913
e 415 485
e 415 875
e 415 972
e 416 544
e 416 634
e 417 693
e 417 662
e 418 736
e 418 558
e 419 544
e 420 494
e 420 464
e 420 501
e 420 497
e 420 664
e 421 921
e 421 546
e 421 844
e 421 764
e 422 520
e 422 478
e 422 480
e 422 632
e 422 682
e 423 928
e 423 872
e 423 934
e 424 739
e 424 487
e 425 874
e 425 679
e 426 686
e 426 490
e 426 842
e 427 722
e 427 786
e 427 798
e 428 430
e 428 969
e 429 451
e 429 706
e 430 690
e 430 608
e 430 742
e 431 627
e 432 594
e 432 745
e 433 981
e 433 892
e 433 704
e 433 657
e 434 872
e 434 733
e 434 599
e 434 865
e 435 960
e 435 843
e 436 886
e 436 770
e 436 526
e 438 533
e 438 627
e 438 800
e 438 887
e 438 813
e 439 467
e 439 482
e 439 640
e 441 700
e 441 629
e 441 887
e 442 878
e 442 794
e 443 478
e 444 472
e 445 695
e 445 772
e 445 828
e 446 577
e 446 791
e 446 766
e 447 723
e 448 854
e 448 518
e 449 826
e 450 532
e 450 616
e 450 545
e 451 861
e 451 508
e 451 984
e 451 788
e 452 587
e 452 921
e 452 609
e 452 785
e 453 562
e 453 866
e 454 740
e 454 693
e 454 481
e 454 999
e 454 851
e 455 997
e 455 498
e 455 587
e 456 893
e 460 604
e 460 515
e 462 943
e 462 632
e 462 582
e 463 539
e 463 873
e 463 586
e 463 563
e 464 921
e 464 953
e 465 467
e 465 611
e 467 575
e 468 488
e 468 668
e 469 745
e 470 748
e 470 573
e 472 646
e 472 858
e 473 719
e 473 738
e 473 606
e 473 896
e 474 770
e 474 803
e 474 480
e 474 895
e 475 494
e 475 518
e 475 617
e 475 954
e 476 974
e 476 988
e 477 680
e 477 831
e 477 893
e 477 922
e 478 885
e 478 571
e 479 849
e 479 784
e 479 803
e 479 485
e 479 628
e 480 866
e 480 833
e 480 727
e 480 860
e 481 688
e 481 840
e 482 999
e 482 618
e 482 597
e 482 517
e 483 951
e 483 521
e 485 984
e 487 497
e 488 745
e 488 887
e 490 826
e 490 582
e 491 718
e 492 886
e 492 783
e 492 532
e 492 528
e 492 719
e 493 943
e 494 896
e 494 780
e 494 669
e 494 790
e 497 988
e 497 898
e 498 985
e 498 959
e 502 913
e 502 636
e 502 719
e 502 620
e 503 532
e 503 928
e 503 917
e 503 652
e 504 998
e 504 894
e 504 794
e 505 956
e 505 688
e 505 874
e 505 526
e 506 597
e 506 995
e 508 881
e 508 968
e 508 716
e 509 618
e 509 687
e 509 821
e 509 744
e 511 892
e 511 548
e 511 572
e 512 621
e 512 532
e 513 630
e 513 870
e 513 602
e 513 933
e 513 604
e 513 740
e 513 574
e 513 562
e 513 575
e 514 524
e 514 795
e 514 907
e 515 570
e 517 698
e 517 954
e 518 704
e 518 797
e 520 972
e 520 562
e 520 563
e 520 764
e 520 1000
e 521 704
e 521 577
e 523 606
e 523 576
e 526 694
e 526 800
e 527 561
e 527 882
e 527 636
e 527 857
e 528 982
e 528 614
e 528 891
e 529 535
e 529 893
e 529 801
e 529 895
e 529 886
e 530 925
e 530 606
e 532 752
e 532 594
e 533 673
e 535 932
e 537 617
e 537 696
e 537 796
e 537 791
e 537 969
e 537 822
e 539 545
e 539 850
e 541 679
e 542 948
e 543 910
e 543 815
e 544 707
e 545 916
e 545 881
e 545 755
e 545 574
e 545 954
e 547 631
e 547 557
e 547 776
e 547 985
e 547 820
e 548 649
e 548 720
e 549 886
e 549 829
e 550 688
e 552 739
e 552 926
e 552 592
e 552 922
e 552 563
e 553 624
e 553 695
e 554 837
e 554 629
e 554 800
e 554 844
e 555 603
e 557 813
e 557 970
e 557 703
e 558 785
e 558 612
e 559 587
e 559 890
e 559 751
e 560 799
e 560 727
e 561 675
e 561 620
e 563 958
e 563 721
e 564 679
e 564 669
e 565 743
e 565 679
e 566 931
e 566 719
e 567 938
e 570 885
e 570 908
e 570 776
e 571 734
e 571 582
e 571 727
e 572 743
e 573 587
e 573 610
e 574 887
e 574 980
e 575 934
e 575 739
e 575 951
e 576 771
e 576 876
e 577 736
e 579 707
e 579 716
e 580 826
e 580 721
e 581 818
e 582 837
e 582 618
e 586 675
e 586 976
e 588 853
e 588 767
e 589 597
e 591 775
e 591 865
e 591 749
e 591 970
e 592 907
e 592 973
e 592 989
e 594 677
e 595 606
e 595 927
e 595 740
e 596 652
e 596 656
e 597 605
e 597 927
e 598 780
e 598 913
e 598 900
e 599 818
e 599 727
e 599 965
e 600 810
e 600 652
e 601 878
e 601 863
e 602 618
e 602 805
e 603 838
e 603 915
e 606 876
e 606 955
e 608 808
e 608 894
e 608 743
e 608 745
e 608 865
e 609 783
e 609 892
e 610 630
e 611 776
e 611 658
e 612 698
e 613 785
e 613 987
e 614 776
e 614 756
e 615 951
e 615 751
e 616 925
e 616 711
e 617 760
e 618 622
e 618 775
e 620 733
e 620 703
e 621 769
e 621 830
e 621 707
e 621 688
e 622 741
e 622 999
e 623 978
e 623 651
e 623 986
e 623 979
e 623 645
e 624 851
e 624 884
e 624 771
e 625 976
e 625 644
e 625 703
e 626 872
e 626 837
e 626 632
e 627 875
e 627 988
e 627 634
e 628 892
e 628 746
e 628 643
e 630 732
e 630 862
e 630 734
e 631 987
e 631 995
e 632 739
e 632 979
e 633 634
e 633 990
e 633 846
e 634 953
e 635 825
e 636 709
e 637 919
e 637 760
e 637 979
e 637 922
e 640 833
e 643 837
e 643 1000
e 644 766
e 644 975
e 645 719
e 645 882
e 645 994
e 646 987
e 646 939
e 647 812
e 647 766
e 647 960
e 651 930
e 651 898
e 652 656
e 652 799
e 652 755
e 656 815
e 656 875
e 656 687
e 657 708
e 658 727
e 658 915
e 662 953
e 662 933
e 663 925
e 663 933
e 663 796
e 663 788
e 664 992
e 666 870
e 666 704
e 666 710
e 667 703
e 668 752
e 668 911
e 668 855
e 668 826
e 670 872
e 670 945
e 672 691
e 672 794
e 673 723
e 674 914
e 674 999
e 675 927
e 676 975
e 676 699
e 677 687
e 677 821
e 679 711
e 679 986
e 679 759
e 680 928
e 680 887
e 684 797
e 684 833
e 686 889
e 687 917
e 687 772
e 687 755
e 688 852
e 688 705
e 689 869
e 690 856
e 690 753
e 691 938
e 691 771
e 691 996
e 691 825
e 693 997
e 693 735
e 694 793
e 695 764
e 696 890
e 696 748
e 698 776
e 699 845
e 699 738
e 699 852
e 703 767
e 703 705
e 704 761
e 705 759
e 705 840
e 707 890
e 707 745
e 708 968
e 708 887
e 709 915
e 709 739
e 709 808
e 711 753
e 712 951
e 712 750
e 714 878
e 714 764
e 714 906
e 716 739
e 718 840
e 719 1000
e 720 985
e 720 824
e 721 945
e 722 910
e 723 730
e 723 980
e 727 931
e 728 800
e 729 785
e 729 917
e 729 789
e 730 889
e 730 964
e 732 913
e 733 754
e 735 850
e 735 948
e 735 778
e 737 807
e 738 767
e 739 879
e 739 836
e 740 869
e 741 890
e 741 946
e 741 820
e 741 910
e 742 756
e 742 821
e 743 784
e 745 769
e 745 888
e 746 857
e 746 830
e 746 834
e 746 893
e 748 856
e 748 960
e 749 977
e 749 931
e 750 838
e 751 840
e 751 945
e 752 948
e 753 977
e 754 988
e 757 896
e 758 978
e 759 911
e 760 931
e 760 932
e 762 882
e 763 896
e 763 794
e 765 884
e 767 829
e 767 779
e 769 788
e 769 996
e 769 842
e 770 903
e 772 889
e 772 826
e 776 783
e 777 884
e 778 834
e 779 980
e 779 852
e 785 955
e 785 870
e 786 958
e 786 863
e 789 981
e 789 807
e 791 849
e 791 824
e 793 911
e 794 911
e 795 908
e 795 946
e 796 870
e 799 886
e 800 922
e 801 862
e 801 930
e 803 976
e 803 982
e 805 857
e 805 980
e 807 844
e 808 892
e 810 992
e 813 892
e 814 854
e 814 905
e 815 979
e 815 987
e 815 838
e 815 960
e 820 875
e 823 891
e 828 926
e 829 849
e 834 882
e 841 849
e 841 871
e 844 959
e 845 953
e 849 905
e 851 994
e 853 939
e 853 979
e 854 860
e 855 959
e 856 958
e 857 872
e 858 878
e 858 964
e 858 927
e 861 974
e 863 888
e 863 884
e 865 915
e 866 997
e 873 885
e 874 937
e 876 888
e 876 914
e 878 920
e 882 925
e 886 913
e 887 973
e 889 968
e 890 981
e 892 934
e 893 939
e 894 919
e 898 903
e 906 911
e 908 998
e 908 926
e 914 1000
e 928 938
e 937 975
e 942 993
e 942 977
e 945 975
e 952 992
e 953 992
e 954 959
e 955 1000
e 959 987
e 963 992
e 963 999
e 973 986
e 978 997
