txt_Ins/graph-1000-141.txt
n 1000
e 2 722
e 2 883
e 2 868
e 2 829
e 3 283
e 3 857
e 3 957
e 3 315
e 4 78
e 4 358
e 4 256
e 4 674
e 4 14
e 4 785
e 5 51
e 5 581
e 5 208
e 5 969
e 5 297
e 5 351
e 5 156
e 7 471
e 7 333
e 7 110
e 7 906
e 8 785
e 8 144
e 8 487
e 9 372
e 9 824
e 9 445
e 9 732
e 9 21
e 9 811
e 9 19
e 9 921
e 9 554
e 10 664
e 10 89
e 10 622
e 10 715
e 10 958
e 11 828
e 11 797
e 11 199
e 11 985
e 11 32
e 13 301
e 13 609
e 13 616
e 13 667
e 14 628
e 14 736
e 15 65
e 15 192
e 15 869
e 16 313
e 16 967
e 16 959
e 16 704
e 17 806
e 17 231
e 17 361
e 17 713
e 18 438
e 18 300
e 18 65
e 19 737
e 19 883
e 19 124
e 19 576
e 20 262
e 20 489
e 20 951
e 20 460
e 20 532
e 20 274
e 20 562
e 20 229
e 21 110
e 21 438
e 21 678
e 21 575
e 21 543
e 21 122
e 21 159
e 21 974
e 21 96
e 21 330
e 21 503
e 23 155
e 23 728
e 23 742
e 24 865
e 24 287
e 24 673
e 26 979
e 26 584
e 26 588
e 26 400
e 26 513
e 26 706
e 26 519
e 28 840
e 28 450
e 28 297
e 28 290
e 28 745
e 28 825
e 31 663
e 31 425
e 31 770
e 31 789
e 31 987
e 32 183
e 32 639
e 32 587
e 32 247
e 34 369
e 34 294
e 34 910
e 34 620
e 34 198
e 35 158
e 35 980
e 35 792
e 36 976
e 36 907
e 36 255
e 36 676
e 36 545
e 36 634
e 36 230
e 36 804
e 36 102
e 36 548
e 36 523
e 37 727
e 37 955
e 37 765
e 38 730
e 38 727
e 38 428
e 38 559
e 40 762
e 40 58
e 40 628
e 40 460
e 42 390
e 42 945
e 42 694
e 42 919
e 42 536
e 43 616
e 43 902
e 43 783
e 43 341
e 43 500
e 46 614
e 46 764
e 46 462
e 47 563
e 47 78
e 47 452
e 49 995
e 49 335
e 49 947
e 50 279
e 50 823
e 50 386
e 51 590
e 51 817
e 51 733
e 54 227
e 54 996
e 54 789
e 56 350
e 56 183
e 56 576
e 56 211
e 56 528
e 56 523
e 56 396
e 56 621
e 57 504
e 57 566
e 57 478
e 58 299
e 58 540
e 58 190
e 58 249
e 58 382
e 58 845
e 58 166
e 58 634
e 60 278
e 60 989
e 60 933
e 60 363
e 60 156
e 62 549
e 62 728
e 62 585
e 63 851
e 63 730
e 63 452
e 63 666
e 64 760
e 64 259
e 64 487
e 64 406
e 65 310
e 65 798
e 65 492
e 65 945
e 65 244
e 65 704
e 66 823
e 66 744
e 66 694
e 66 977
e 67 400
e 67 542
e 67 576
e 67 151
e 67 590
e 67 138
e 69 666
e 69 460
e 69 480
e 70 360
e 70 705
e 70 588
e 70 631
e 71 330
e 71 194
e 71 75
e 71 418
e 71 789
e 72 821
e 72 245
e 72 411
e 72 924
e 74 79
e 74 850
e 74 542
e 75 186
e 75 423
e 75 776
e 76 643
e 76 547
e 76 281
e 77 160
e 77 930
e 77 503
e 78 586
e 78 652
e 78 875
e 78 266
e 78 461
e 78 423
e 79 675
e 79 709
e 79 392
e 80 578
e 80 636
e 80 845
e 80 305
e 82 783
e 82 441
e 82 409
e 83 919
e 83 452
e 83 597
e 83 194
e 84 661
e 84 742
e 84 987
e 84 625
e 85 226
e 85 363
e 85 869
e 85 909
e 86 859
e 86 746
e 86 774
e 86 842
e 86 679
e 87 516
e 87 892
e 87 242
e 87 147
e 87 283
e 89 596
e 89 645
e 89 190
e 89 574
e 89 989
e 89 507
e 91 944
e 91 824
e 91 627
e 91 893
e 91 432
e 91 753
e 91 741
e 93 364
e 93 735
e 93 633
e 93 229
e 96 391
e 96 358
e 96 575
e 96 833
e 98 176
e 98 542
e 98 975
e 98 784
e 98 777
e 98 590
e 100 441
e 100 234
e 100 361
e 101 267
e 101 785
e 101 486
e 101 433
e 101 467
e 101 261
e 102 359
e 102 153
e 102 603
e 103 219
e 103 743
e 103 857
e 103 389
e 103 742
e 104 748
e 104 578
e 104 107
e 104 625
e 104 622
e 107 543
e 107 718
e 107 830
e 107 930
e 108 183
e 108 473
e 108 540
e 109 218
e 109 407
e 109 131
e 109 580
e 110 409
e 110 645
e 110 315
e 111 390
e 111 972
e 111 782
e 112 545
e 112 958
e 112 391
e 112 437
e 118 755
e 118 940
e 118 870
e 118 919
e 119 738
e 119 575
e 119 977
e 119 681
e 119 770
e 120 774
e 120 839
e 120 213
e 120 652
e 120 823
e 120 675
e 120 671
e 122 877
e 122 167
e 122 365
e 122 650
e 122 770
e 123 830
e 123 928
e 123 459
e 124 340
e 124 678
e 124 975
e 124 843
e 126 987
e 126 211
e 126 185
e 131 940
e 131 307
e 131 708
e 131 699
e 132 888
e 132 736
e 132 474
e 132 257
e 132 222
e 132 976
e 134 924
e 134 581
e 134 741
e 135 296
e 135 593
e 135 220
e 135 860
e 135 195
e 135 357
e 137 149
e 137 826
e 137 796
e 137 334
e 137 311
e 137 688
e 137 736
e 138 964
e 138 608
e 138 344
e 138 544
e 140 297
e 140 579
e 140 361
e 140 296
e 141 579
e 141 584
e 141 935
e 141 983
e 142 453
e 142 825
e 142 254
e 142 796
e 143 510
e 143 405
e 143 936
e 143 560
e 144 560
e 144 471
e 144 690
e 144 231
e 144 569
e 146 311
e 146 942
e 146 872
e 146 988
e 147 286
e 147 645
e 149 424
e 149 496
e 150 442
e 150 538
e 150 620
e 150 299
e 151 416
e 151 635
e 151 807
e 151 679
e 151 186
e 152 341
e 152 694
e 152 650
e 152 849
e 152 514
e 153 774
e 153 621
e 153 870
e 153 913
e 153 842
e 154 981
e 154 502
e 154 595
e 154 613
e 155 209
e 155 282
e 155 330
e 155 690
e 156 275
e 156 491
e 156 976
e 157 360
e 157 536
e 157 947
e 158 266
e 158 500
e 158 502
e 158 471
e 158 774
e 158 468
e 159 395
e 159 399
e 160 704
e 160 190
e 160 743
e 160 999
e 160 300
e 166 328
e 166 404
e 166 928
e 167 258
e 167 604
e 167 938
e 168 793
e 168 572
e 168 200
e 169 234
e 169 554
e 169 490
e 170 752
e 170 225
e 170 453
e 171 852
e 171 198
e 171 707
e 171 286
e 173 418
e 173 501
e 173 260
e 173 461
e 174 811
e 174 411
e 174 300
e 174 874
e 174 460
e 175 920
e 175 902
e 175 749
e 175 270
e 176 874
e 176 574
e 179 693
e 179 245
e 179 642
e 179 764
e 181 268
e 181 967
e 181 972
e 181 681
e 181 469
e 181 634
e 183 688
e 185 361
e 185 809
e 185 757
e 186 504
e 186 496
e 186 409
e 186 972
e 189 452
e 189 226
e 189 324
e 189 249
e 189 795
e 189 217
e 189 382
e 190 448
e 190 664
e 190 377
e 190 974
e 192 775
e 192 809
e 192 813
e 194 275
e 194 575
e 194 811
e 194 694
e 195 281
e 195 553
e 195 409
e 195 435
e 195 906
e 197 451
e 197 198
e 197 218
e 199 429
e 199 287
e 199 616
e 199 969
e 200 428
e 200 694
e 200 992
e 201 237
e 201 316
e 201 652
e 201 904
e 202 807
e 202 321
e 202 586
e 203 942
e 203 316
e 203 496
e 206 652
e 206 732
e 206 762
e 206 894
e 206 237
e 206 227
e 206 446
e 207 268
e 207 417
e 207 964
e 207 275
e 208 571
e 208 285
e 208 496
e 209 959
e 209 541
e 209 715
e 210 389
e 210 253
e 210 301
e 210 667
e 211 824
e 211 255
e 212 242
e 212 689
e 212 394
e 212 219
e 212 605
e 213 576
e 213 377
e 213 756
e 214 998
e 214 656
e 214 860
e 215 443
e 215 655
e 215 351
e 215 296
e 216 411
e 216 729
e 216 891
e 216 890
e 217 400
e 217 541
e 217 612
e 217 868
e 218 448
e 218 307
e 218 601
e 219 450
e 219 748
e 219 941
e 219 441
e 219 389
e 220 774
e 220 690
e 220 430
e 220 596
e 220 517
e 222 609
e 222 415
e 222 368
e 224 593
e 224 336
e 224 234
e 225 880
e 225 935
e 225 675
e 225 367
e 226 605
e 226 902
e 226 630
e 226 813
e 226 601
e 226 446
e 227 411
e 227 787
e 227 825
e 227 279
e 228 554
e 228 336
e 228 878
e 229 608
e 229 976
e 229 481
e 229 467
e 230 369
e 230 991
e 230 686
e 230 602
e 231 529
e 231 442
e 231 428
e 231 482
e 231 432
e 231 397
e 234 885
e 234 629
e 234 519
e 236 246
e 236 340
e 236 928
e 237 662
e 237 958
e 237 324
e 237 837
e 239 276
e 239 599
e 239 963
e 239 293
e 240 968
e 240 552
e 240 709
e 242 856
e 242 936
e 242 268
e 242 984
e 242 829
e 242 827
e 243 321
e 243 668
e 243 918
e 243 313
e 244 639
e 244 558
e 244 621
e 245 283
e 245 413
e 245 330
e 245 826
e 245 899
e 245 770
e 246 914
e 246 426
e 247 267
e 247 634
e 248 603
e 248 511
e 248 489
e 248 431
e 248 899
e 249 825
e 253 942
e 253 795
e 254 674
e 254 894
e 254 504
e 255 777
e 255 840
e 255 317
e 256 902
e 256 835
e 256 915
e 256 335
e 256 802
e 257 630
e 257 756
e 258 839
e 258 594
e 259 512
e 259 708
e 260 687
e 260 940
e 260 309
e 261 460
e 261 931
e 261 405
e 261 667
e 262 666
e 262 614
e 264 905
e 264 964
e 264 788
e 266 688
e 266 997
e 266 418
e 267 587
e 267 797
e 268 666
e 268 925
e 268 937
e 268 542
e 268 275
e 268 367
e 269 688
e 269 608
e 269 455
e 270 733
e 270 985
e 270 361
e 270 646
e 270 579
e 270 280
e 271 385
e 271 715
e 271 455
e 273 671
e 273 384
e 273 661
e 273 910
e 273 884
e 273 290
e 274 991
e 274 915
e 274 728
e 274 279
e 275 420
e 276 843
e 276 336
e 278 932
e 278 776
e 278 862
e 279 648
e 279 605
e 279 302
e 279 752
e 279 979
e 279 761
e 280 963
e 280 836
e 281 864
e 281 760
e 281 971
e 281 602
e 281 749
e 281 370
e 282 912
e 282 315
e 282 986
e 282 512
e 283 517
e 284 669
e 284 950
e 284 957
e 284 993
e 285 758
e 285 729
e 285 423
e 285 746
e 286 783
e 286 444
e 286 557
e 286 988
e 287 842
e 287 954
e 288 731
e 288 597
e 288 883
e 288 983
e 288 874
e 288 363
e 288 447
e 289 927
e 289 996
e 289 836
e 289 730
e 289 843
e 289 947
e 290 420
e 292 504
e 292 427
e 292 433
e 293 336
e 293 391
e 293 587
e 293 844
e 293 732
e 294 874
e 294 989
e 295 974
e 295 983
e 295 757
e 295 417
e 296 895
e 296 930
e 296 623
e 299 994
e 299 434
e 299 832
e 299 426
e 300 491
e 300 580
e 301 755
e 301 981
e 301 310
e 302 892
e 302 991
e 302 963
e 305 796
e 305 987
e 307 364
e 307 332
e 309 836
e 309 878
e 309 370
e 309 852
e 309 580
e 310 927
e 310 497
e 310 935
e 311 824
e 311 408
e 311 899
e 313 464
e 313 347
e 313 423
e 315 788
e 315 779
e 315 745
e 316 711
e 316 335
e 316 619
e 316 733
e 317 531
e 317 979
e 317 667
e 317 564
e 321 878
e 321 683
e 321 890
e 322 717
e 322 556
e 322 526
e 322 324
e 323 919
e 323 655
e 323 406
e 323 937
e 323 467
e 323 534
e 324 798
e 326 806
e 326 422
e 326 426
e 326 673
e 328 783
e 328 822
e 330 407
e 330 341
e 330 595
e 330 552
e 330 907
e 331 664
e 331 790
e 331 880
e 331 490
e 331 347
e 331 875
e 332 386
e 332 648
e 333 788
e 333 404
e 333 779
e 334 745
e 334 527
e 334 809
e 334 874
e 334 919
e 334 743
e 334 419
e 335 474
e 335 829
e 335 507
e 335 493
e 335 505
e 336 356
e 336 992
e 336 678
e 340 937
e 340 918
e 340 611
e 341 489
e 341 829
e 342 554
e 342 951
e 342 544
e 343 356
e 343 861
e 343 720
e 344 584
e 344 478
e 345 829
e 345 505
e 345 424
e 345 566
e 346 558
e 346 706
e 346 443
e 346 877
e 347 877
e 347 643
e 347 720
e 347 571
e 347 692
e 347 708
e 347 359
e 350 929
e 350 926
e 350 708
e 350 918
e 351 500
e 352 617
e 352 438
e 352 489
e 352 423
e 352 565
e 352 384
e 353 713
e 353 387
e 353 394
e 353 448
e 353 675
e 356 671
e 356 520
e 356 534
e 357 665
e 357 631
e 357 811
e 358 395
e 358 699
e 358 963
e 359 548
e 360 672
e 360 976
e 360 826
e 360 835
e 361 739
e 361 821
e 361 998
e 361 969
e 362 827
e 362 619
e 362 848
e 363 710
e 363 511
e 364 604
e 364 475
e 364 865
e 365 454
e 365 999
e 365 394
e 365 492
e 366 464
e 366 986
e 366 828
e 367 730
e 367 595
e 368 957
e 368 546
e 369 799
e 369 758
e 369 813
e 370 384
e 370 759
e 370 705
e 372 745
e 372 761
e 377 973
e 377 575
e 377 941
e 377 721
e 377 464
e 379 871
e 379 511
e 379 392
e 379 433
e 382 517
e 382 547
e 382 822
e 382 821
e 383 763
e 383 962
e 383 417
e 383 685
e 383 387
e 383 416
e 384 421
e 385 479
e 385 563
e 385 753
e 386 628
e 386 475
e 387 842
e 387 523
e 387 750
e 387 832
e 387 981
e 388 905
e 388 746
e 388 683
e 388 795
e 389 720
e 389 912
e 390 854
e 390 851
e 390 454
e 390 845
e 390 695
e 391 487
e 391 586
e 391 468
e 392 486
e 392 549
e 392 757
e 392 454
e 395 626
e 395 678
e 395 729
e 396 604
e 396 878
e 396 765
e 397 962
e 397 622
e 397 817
e 399 891
e 399 679
e 400 813
e 400 632
e 402 642
e 402 430
e 402 907
e 403 546
e 403 431
e 403 563
e 404 455
e 404 915
e 404 694
e 405 770
e 405 870
e 405 694
e 405 732
e 406 413
e 406 886
e 407 600
e 407 603
e 407 833
e 408 955
e 408 556
e 408 894
e 408 860
e 408 549
e 409 461
e 410 452
e 410 841
e 410 844
e 411 522
e 411 668
e 413 912
e 414 484
e 414 874
e 414 971
e 415 543
e 415 633
e 416 692
e 416 661
e 417 735
e 417 557
e 418 543
e 419 493
e 419 463
e 419 500
e 419 496
e 419 663
e 420 920
e 420 545
e 420 843
e 420 763
e 421 519
e 421 477
e 421 479
e 421 631
e 421 681
e 422 927
e 422 871
e 422 933
e 423 738
e 423 486
e 424 873
e 424 678
e 425 685
e 425 489
e 425 841
e 426 721
e 426 785
e 426 797
e 427 429
e 427 968
e 428 450
e 428 705
e 429 689
e 429 607
e 429 741
e 430 626
e 431 593
e 431 744
e 432 980
e 432 891
e 432 703
e 432 656
e 433 871
e 433 732
e 433 598
e 433 864
e 434 959
e 434 842
e 435 885
e 435 769
e 435 525
e 437 532
e 437 626
e 437 799
e 437 886
e 437 812
e 438 466
e 438 481
e 438 639
e 440 699
e 440 628
e 440 886
e 441 877
e 441 793
e 442 477
e 443 471
e 444 694
e 444 771
e 444 827
e 445 576
e 445 790
e 445 765
e 446 722
e 447 853
e 447 517
e 448 825
e 449 531
e 449 615
e 449 544
e 450 860
e 450 507
e 450 983
e 450 787
e 451 586
e 451 920
e 451 608
e 451 784
e 452 561
e 452 865
e 453 739
e 453 692
e 453 480
e 453 998
e 453 850
e 454 996
e 454 497
e 454 586
e 455 892
e 459 603
e 459 514
e 461 942
e 461 631
e 461 581
e 462 538
e 462 872
e 462 585
e 462 562
e 463 920
e 463 952
e 464 466
e 464 610
e 466 574
e 467 487
e 467 667
e 468 744
e 469 747
e 469 572
e 471 645
e 471 857
e 472 718
e 472 737
e 472 605
e 472 895
e 473 769
e 473 802
e 473 479
e 473 894
e 474 493
e 474 517
e 474 616
e 474 953
e 475 973
e 475 987
e 476 679
e 476 830
e 476 892
e 476 921
e 477 884
e 477 570
e 478 848
e 478 783
e 478 802
e 478 484
e 478 627
e 479 865
e 479 832
e 479 726
e 479 859
e 480 687
e 480 839
e 481 998
e 481 617
e 481 596
e 481 516
e 482 950
e 482 520
e 484 983
e 486 496
e 487 744
e 487 886
e 489 825
e 489 581
e 490 717
e 491 885
e 491 782
e 491 531
e 491 527
e 491 718
e 492 942
e 493 895
e 493 779
e 493 668
e 493 789
e 496 987
e 496 897
e 497 984
e 497 958
e 501 912
e 501 635
e 501 718
e 501 619
e 502 531
e 502 927
e 502 916
e 502 651
e 503 997
e 503 893
e 503 793
e 504 955
e 504 687
e 504 873
e 504 525
e 505 596
e 505 994
e 507 880
e 507 967
e 507 715
e 508 617
e 508 686
e 508 820
e 508 743
e 510 891
e 510 547
e 510 571
e 511 620
e 511 531
e 512 629
e 512 869
e 512 601
e 512 932
e 512 603
e 512 739
e 512 573
e 512 561
e 512 574
e 513 523
e 513 794
e 513 906
e 514 569
e 516 697
e 516 953
e 517 703
e 517 796
e 519 971
e 519 561
e 519 562
e 519 763
e 519 999
e 520 703
e 520 576
e 522 605
e 522 575
e 525 693
e 525 799
e 526 560
e 526 881
e 526 635
e 526 856
e 527 981
e 527 613
e 527 890
e 528 534
e 528 892
e 528 800
e 528 894
e 528 885
e 529 924
e 529 605
e 531 751
e 531 593
e 532 672
e 534 931
e 536 616
e 536 695
e 536 795
e 536 790
e 536 968
e 536 821
e 538 544
e 538 849
e 540 678
e 541 947
e 542 909
e 542 814
e 543 706
e 544 915
e 544 880
e 544 754
e 544 573
e 544 953
e 546 630
e 546 556
e 546 775
e 546 984
e 546 819
e 547 648
e 547 719
e 548 885
e 548 828
e 549 687
e 551 738
e 551 925
e 551 591
e 551 921
e 551 562
e 552 623
e 552 694
e 553 836
e 553 628
e 553 799
e 553 843
e 554 602
e 556 812
e 556 969
e 556 702
e 557 784
e 557 611
e 558 586
e 558 889
e 558 750
e 559 798
e 559 726
e 560 674
e 560 619
e 562 957
e 562 720
e 563 678
e 563 668
e 564 742
e 564 678
e 565 930
e 565 718
e 566 937
e 569 884
e 569 907
e 569 775
e 570 733
e 570 581
e 570 726
e 571 742
e 572 586
e 572 609
e 573 886
e 573 979
e 574 933
e 574 738
e 574 950
e 575 770
e 575 875
e 576 735
e 578 706
e 578 715
e 579 825
e 579 720
e 580 817
e 581 836
e 581 617
e 585 674
e 585 975
e 587 852
e 587 766
e 588 596
e 590 774
e 590 864
e 590 748
e 590 969
e 591 906
e 591 972
e 591 988
e 593 676
e 594 605
e 594 926
e 594 739
e 595 651
e 595 655
e 596 604
e 596 926
e 597 779
e 597 912
e 597 899
e 598 817
e 598 726
e 598 964
e 599 809
e 599 651
e 600 877
e 600 862
e 601 617
e 601 804
e 602 837
e 602 914
e 605 875
e 605 954
e 607 807
e 607 893
e 607 742
e 607 744
e 607 864
e 608 782
e 608 891
e 609 629
e 610 775
e 610 657
e 611 697
e 612 784
e 612 986
e 613 775
e 613 755
e 614 950
e 614 750
e 615 924
e 615 710
e 616 759
e 617 621
e 617 774
e 619 732
e 619 702
e 620 768
e 620 829
e 620 706
e 620 687
e 621 740
e 621 998
e 622 977
e 622 650
e 622 985
e 622 978
e 622 644
e 623 850
e 623 883
e 623 770
e 624 975
e 624 643
e 624 702
e 625 871
e 625 836
e 625 631
e 626 874
e 626 987
e 626 633
e 627 891
e 627 745
e 627 642
e 629 731
e 629 861
e 629 733
e 630 986
e 630 994
e 631 738
e 631 978
e 632 633
e 632 989
e 632 845
e 633 952
e 634 824
e 635 708
e 636 918
e 636 759
e 636 978
e 636 921
e 639 832
e 642 836
e 642 999
e 643 765
e 643 974
e 644 718
e 644 881
e 644 993
e 645 986
e 645 938
e 646 811
e 646 765
e 646 959
e 650 929
e 650 897
e 651 655
e 651 798
e 651 754
e 655 814
e 655 874
e 655 686
e 656 707
e 657 726
e 657 914
e 661 952
e 661 932
e 662 924
e 662 932
e 662 795
e 662 787
e 663 991
e 665 869
e 665 703
e 665 709
e 666 702
e 667 751
e 667 910
e 667 854
e 667 825
e 669 871
e 669 944
e 671 690
e 671 793
e 672 722
e 673 913
e 673 998
e 674 926
e 675 974
e 675 698
e 676 686
e 676 820
e 678 710
e 678 985
e 678 758
e 679 927
e 679 886
e 683 796
e 683 832
e 685 888
e 686 916
e 686 771
e 686 754
e 687 851
e 687 704
e 688 868
e 689 855
e 689 752
e 690 937
e 690 770
e 690 995
e 690 824
e 692 996
e 692 734
e 693 792
e 694 763
e 695 889
e 695 747
e 697 775
e 698 844
e 698 737
e 698 851
e 702 766
e 702 704
e 703 760
e 704 758
e 704 839
e 706 889
e 706 744
e 707 967
e 707 886
e 708 914
e 708 738
e 708 807
e 710 752
e 711 950
e 711 749
e 713 877
e 713 763
e 713 905
e 715 738
e 717 839
e 718 999
e 719 984
e 719 823
e 720 944
e 721 909
e 722 729
e 722 979
e 726 930
e 727 799
e 728 784
e 728 916
e 728 788
e 729 888
e 729 963
e 731 912
e 732 753
e 734 849
e 734 947
e 734 777
e 736 806
e 737 766
e 738 878
e 738 835
e 739 868
e 740 889
e 740 945
e 740 819
e 740 909
e 741 755
e 741 820
e 742 783
e 744 768
e 744 887
e 745 856
e 745 829
e 745 833
e 745 892
e 747 855
e 747 959
e 748 976
e 748 930
e 749 837
e 750 839
e 750 944
e 751 947
e 752 976
e 753 987
e 756 895
e 757 977
e 758 910
e 759 930
e 759 931
e 761 881
e 762 895
e 762 793
e 764 883
e 766 828
e 766 778
e 768 787
e 768 995
e 768 841
e 769 902
e 771 888
e 771 825
e 775 782
e 776 883
e 777 833
e 778 979
e 778 851
e 784 954
e 784 869
e 785 957
e 785 862
e 788 980
e 788 806
e 790 848
e 790 823
e 792 910
e 793 910
e 794 907
e 794 945
e 795 869
e 798 885
e 799 921
e 800 861
e 800 929
e 802 975
e 802 981
e 804 856
e 804 979
e 806 843
e 807 891
e 809 991
e 812 891
e 813 853
e 813 904
e 814 978
e 814 986
e 814 837
e 814 959
e 819 874
e 822 890
e 827 925
e 828 848
e 833 881
e 840 848
e 840 870
e 843 958
e 844 952
e 848 904
e 850 993
e 852 938
e 852 978
e 853 859
e 854 958
e 855 957
e 856 871
e 857 877
e 857 963
e 857 926
e 860 973
e 862 887
e 862 883
e 864 914
e 865 996
e 872 884
e 873 936
e 875 887
e 875 913
e 877 919
e 881 924
e 885 912
e 886 972
e 888 967
e 889 980
e 891 933
e 892 938
e 893 918
e 897 902
e 905 910
e 907 997
e 907 925
e 913 999
e 927 937
e 936 974
e 941 992
e 941 976
e 944 974
e 951 991
e 952 991
e 953 958
e 954 999
e 958 986
e 962 991
e 962 998
e 972 985
e 977 996
